
Gurobi 9.0.1 (linux64) logging started Fri May  1 00:40:21 2020

Gurobi Optimizer version 9.0.1 build v9.0.1rc0 (linux64)
Optimize a model with 1184 rows, 842 columns and 4340 nonzeros
Model fingerprint: 0x51722b1a
Variable types: 0 continuous, 842 integer (810 binary)
Coefficient statistics:
  Matrix range     [1e+00, 8e+00]
  Objective range  [3e+00, 1e+02]
  Bounds range     [1e+00, 1e+00]
  RHS range        [1e+00, 9e+00]

User MIP start produced solution with objective 571 (0.00s)
Loaded user MIP start with objective 571

Presolve removed 480 rows and 316 columns
Presolve time: 0.01s
Presolved: 704 rows, 526 columns, 2912 nonzeros
Variable types: 0 continuous, 526 integer (498 binary)

Root relaxation: objective 4.127500e+02, 613 iterations, 0.02 seconds

    Nodes    |    Current Node    |     Objective Bounds      |     Work
 Expl Unexpl |  Obj  Depth IntInf | Incumbent    BestBd   Gap | It/Node Time

     0     0  412.75000    0   23  571.00000  412.75000  27.7%     -    0s
     0     0  536.00000    0   41  571.00000  536.00000  6.13%     -    0s
     0     0  536.00000    0   44  571.00000  536.00000  6.13%     -    0s
     0     0  536.00000    0  110  571.00000  536.00000  6.13%     -    0s
     0     0  536.00000    0  110  571.00000  536.00000  6.13%     -    0s
     0     0  536.45000    0   71  571.00000  536.45000  6.05%     -    0s
     0     0  536.58929    0   69  571.00000  536.58929  6.03%     -    0s
     0     0  536.58929    0   69  571.00000  536.58929  6.03%     -    0s
     0     0  542.25000    0   81  571.00000  542.25000  5.04%     -    0s
     0     0  542.25000    0   82  571.00000  542.25000  5.04%     -    0s
     0     0  542.25000    0   61  571.00000  542.25000  5.04%     -    0s
     0     0  542.25000    0   78  571.00000  542.25000  5.04%     -    0s
     0     0  542.25000    0   81  571.00000  542.25000  5.04%     -    0s
     0     0  542.25000    0   98  571.00000  542.25000  5.04%     -    0s
     0     0  542.25000    0   66  571.00000  542.25000  5.04%     -    0s
     0     0  542.25000    0  101  571.00000  542.25000  5.04%     -    0s
     0     0  542.25000    0   87  571.00000  542.25000  5.04%     -    0s
     0     0  542.25000    0   69  571.00000  542.25000  5.04%     -    0s
     0     0  542.25000    0   21  571.00000  542.25000  5.04%     -    0s
     0     0  542.25000    0   62  571.00000  542.25000  5.04%     -    0s
     0     0  542.25000    0   71  571.00000  542.25000  5.04%     -    0s
     0     0  542.25000    0   67  571.00000  542.25000  5.04%     -    0s
     0     0  542.25000    0   64  571.00000  542.25000  5.04%     -    0s
     0     0  542.25000    0   64  571.00000  542.25000  5.04%     -    0s
     0     0  542.25000    0   51  571.00000  542.25000  5.04%     -    0s
     0     0  542.25000    0   54  571.00000  542.25000  5.04%     -    0s
     0     0  542.25000    0   59  571.00000  542.25000  5.04%     -    0s
     0     0  542.25000    0   43  571.00000  542.25000  5.04%     -    0s
     0     2  545.00000    0   40  571.00000  545.00000  4.55%     -    0s
  1416   262 infeasible   12       571.00000  555.09524  2.79%  44.1    5s

Cutting planes:
  Learned: 6
  Cover: 83
  Implied bound: 227
  MIR: 24
  Inf proof: 4
  Zero half: 4
  Mod-K: 1
  RLT: 13
  Relax-and-lift: 15

Explored 2177 nodes (100324 simplex iterations) in 7.12 seconds
Thread count was 1 (of 40 available processors)

Solution count 1: 571 

Optimal solution found (tolerance 1.00e-04)
Best objective 5.710000000000e+02, best bound 5.710000000000e+02, gap 0.0000%

User-callback calls 6493, time in user-callback 0.01 sec
